robust/generate/spp_dkp_Lefebvre_et_al_2026/src/shortest_path_8_7.kp
49
194

[1.27 1.04 3.91 3.76 2.88 2.39 2.31 0.89 3.25 3.78 3.04 2.1 1.86 3.38 3.56 0.97 4.06 0.25 1.22 1.32 2.96 2.98 3.98 2.56 1.5 1.77 3.82 1.06 1.28 0.32 1.06 3.84 3.56 2.69 4.18 3.96 3.61 3.88 2.81 1.66 2.46 1.59 2.03 1.52 0.7 3.77]

[69 2 66 18 4 68 25 60 26 9 95 93 63 57 21 3 15 26 60 54 73 27 33 47 34 87 58 62 78 51 30 76 79 34 74 74 15 46 52 17 31 85 25 35 54 24]
